p cnf 1271
-19 -397
-20 -400
-21 -403
-22 -406
-23 -409
-24 -412
-25 -415
-26 -418
-27 -421
-28 -424
-29 -427
-30 -430
-31 -433
-32 -436
-33 -439
-34 -442
-35 -445
-36 -448
-37 449
-38 450
-39 451
-40 452
-41 453
-42 454
-43 455
-44 456
-45 457
-46 458
-47 -20
-47 -21
20 21 47
-48 -22
-48 -23
22 23 48
-49 -24
-49 -25
24 25 49
-50 -26
-50 -27
26 27 50
-51 -28
-51 -29
28 29 51
-52 -30
-52 -31
30 31 52
-53 -32
-53 -33
32 33 53
-54 -34
-54 -35
34 35 54
-55 -36
-55 -37
36 37 55
-56 -38
-56 -39
38 39 56
-57 -40
-57 -41
40 41 57
-58 -42
-58 -43
42 43 58
-59 -44
-59 -45
44 45 59
-60 47
-60 48
-47 -48 60
-61 49
-61 50
-49 -50 61
-62 51
-62 52
-51 -52 62
-63 53
-63 54
-53 -54 63
-64 55
-64 56
-55 -56 64
-65 57
-65 58
-57 -58 65
-66 -46
-66 59
46 -59 66
-67 60
-67 61
-60 -61 67
-68 62
-68 63
-62 -63 68
-69 64
-69 65
-64 -65 69
-70 67
-70 68
-67 -68 70
-71 66
-71 69
-66 -69 71
-72 70
-72 71
-70 -71 72
-73 -19
-73 20
19 -20 73
-74 19
-74 -20
-19 20 74
-75 -73
-75 -74
73 74 75
-76 19
-76 20
-19 -20 76
-77 -19
-77 -75
19 75 77
-78 19
-78 75
-19 -75 78
-79 -77
-79 -78
77 78 79
-80 19
-80 -75
-19 75 80
-81 -76
-81 -80
76 80 81
-82 -20
-82 21
20 -21 82
-83 20
-83 -21
-20 21 83
-84 -82
-84 -83
82 83 84
-85 20
-85 21
-20 -21 85
-86 81
-86 -84
-81 84 86
-87 -81
-87 84
81 -84 87
-88 -86
-88 -87
86 87 88
-89 -81
-89 -84
81 84 89
-90 -85
-90 -89
85 89 90
-91 -21
-91 22
21 -22 91
-92 21
-92 -22
-21 22 92
-93 -91
-93 -92
91 92 93
-94 21
-94 22
-21 -22 94
-95 90
-95 -93
-90 93 95
-96 -90
-96 93
90 -93 96
-97 -95
-97 -96
95 96 97
-98 -90
-98 -93
90 93 98
-99 -94
-99 -98
94 98 99
-100 -22
-100 23
22 -23 100
-101 22
-101 -23
-22 23 101
-102 -100
-102 -101
100 101 102
-103 22
-103 23
-22 -23 103
-104 99
-104 -102
-99 102 104
-105 -99
-105 102
99 -102 105
-106 -104
-106 -105
104 105 106
-107 -99
-107 -102
99 102 107
-108 -103
-108 -107
103 107 108
-109 -23
-109 24
23 -24 109
-110 23
-110 -24
-23 24 110
-111 -109
-111 -110
109 110 111
-112 23
-112 24
-23 -24 112
-113 108
-113 -111
-108 111 113
-114 -108
-114 111
108 -111 114
-115 -113
-115 -114
113 114 115
-116 -108
-116 -111
108 111 116
-117 -112
-117 -116
112 116 117
-118 -24
-118 25
24 -25 118
-119 24
-119 -25
-24 25 119
-120 -118
-120 -119
118 119 120
-121 24
-121 25
-24 -25 121
-122 117
-122 -120
-117 120 122
-123 -117
-123 120
117 -120 123
-124 -122
-124 -123
122 123 124
-125 -117
-125 -120
117 120 125
-126 -121
-126 -125
121 125 126
-127 -25
-127 26
25 -26 127
-128 25
-128 -26
-25 26 128
-129 -127
-129 -128
127 128 129
-130 25
-130 26
-25 -26 130
-131 126
-131 -129
-126 129 131
-132 -126
-132 129
126 -129 132
-133 -131
-133 -132
131 132 133
-134 -126
-134 -129
126 129 134
-135 -130
-135 -134
130 134 135
-136 -26
-136 27
26 -27 136
-137 26
-137 -27
-26 27 137
-138 -136
-138 -137
136 137 138
-139 26
-139 27
-26 -27 139
-140 135
-140 -138
-135 138 140
-141 -135
-141 138
135 -138 141
-142 -140
-142 -141
140 141 142
-143 -135
-143 -138
135 138 143
-144 -139
-144 -143
139 143 144
-145 -27
-145 28
27 -28 145
-146 27
-146 -28
-27 28 146
-147 -145
-147 -146
145 146 147
-148 27
-148 28
-27 -28 148
-149 144
-149 -147
-144 147 149
-150 -144
-150 147
144 -147 150
-151 -149
-151 -150
149 150 151
-152 -144
-152 -147
144 147 152
-153 -148
-153 -152
148 152 153
-154 -28
-154 29
28 -29 154
-155 28
-155 -29
-28 29 155
-156 -154
-156 -155
154 155 156
-157 28
-157 29
-28 -29 157
-158 153
-158 -156
-153 156 158
-159 -153
-159 156
153 -156 159
-160 -158
-160 -159
158 159 160
-161 -153
-161 -156
153 156 161
-162 -157
-162 -161
157 161 162
-163 -29
-163 30
29 -30 163
-164 29
-164 -30
-29 30 164
-165 -163
-165 -164
163 164 165
-166 29
-166 30
-29 -30 166
-167 162
-167 -165
-162 165 167
-168 -162
-168 165
162 -165 168
-169 -167
-169 -168
167 168 169
-170 -162
-170 -165
162 165 170
-171 -166
-171 -170
166 170 171
-172 -30
-172 31
30 -31 172
-173 30
-173 -31
-30 31 173
-174 -172
-174 -173
172 173 174
-175 30
-175 31
-30 -31 175
-176 171
-176 -174
-171 174 176
-177 -171
-177 174
171 -174 177
-178 -176
-178 -177
176 177 178
-179 -171
-179 -174
171 174 179
-180 -175
-180 -179
175 179 180
-181 -31
-181 32
31 -32 181
-182 31
-182 -32
-31 32 182
-183 -181
-183 -182
181 182 183
-184 31
-184 32
-31 -32 184
-185 180
-185 -183
-180 183 185
-186 -180
-186 183
180 -183 186
-187 -185
-187 -186
185 186 187
-188 -180
-188 -183
180 183 188
-189 -184
-189 -188
184 188 189
-190 -32
-190 33
32 -33 190
-191 32
-191 -33
-32 33 191
-192 -190
-192 -191
190 191 192
-193 32
-193 33
-32 -33 193
-194 189
-194 -192
-189 192 194
-195 -189
-195 192
189 -192 195
-196 -194
-196 -195
194 195 196
-197 -189
-197 -192
189 192 197
-198 -193
-198 -197
193 197 198
-199 -33
-199 34
33 -34 199
-200 33
-200 -34
-33 34 200
-201 -199
-201 -200
199 200 201
-202 33
-202 34
-33 -34 202
-203 198
-203 -201
-198 201 203
-204 -198
-204 201
198 -201 204
-205 -203
-205 -204
203 204 205
-206 -198
-206 -201
198 201 206
-207 -202
-207 -206
202 206 207
-208 -34
-208 35
34 -35 208
-209 34
-209 -35
-34 35 209
-210 -208
-210 -209
208 209 210
-211 34
-211 35
-34 -35 211
-212 207
-212 -210
-207 210 212
-213 -207
-213 210
207 -210 213
-214 -212
-214 -213
212 213 214
-215 -207
-215 -210
207 210 215
-216 -211
-216 -215
211 215 216
-217 -35
-217 36
35 -36 217
-218 35
-218 -36
-35 36 218
-219 -217
-219 -218
217 218 219
-220 35
-220 36
-35 -36 220
-221 216
-221 -219
-216 219 221
-222 -216
-222 219
216 -219 222
-223 -221
-223 -222
221 222 223
-224 -216
-224 -219
216 219 224
-225 -220
-225 -224
220 224 225
-226 -36
-226 37
36 -37 226
-227 36
-227 -37
-36 37 227
-228 -226
-228 -227
226 227 228
-229 36
-229 37
-36 -37 229
-230 225
-230 -228
-225 228 230
-231 -225
-231 228
225 -228 231
-232 -230
-232 -231
230 231 232
-233 -225
-233 -228
225 228 233
-234 -229
-234 -233
229 233 234
-235 -37
-235 38
37 -38 235
-236 37
-236 -38
-37 38 236
-237 -235
-237 -236
235 236 237
-238 37
-238 38
-37 -38 238
-239 234
-239 -237
-234 237 239
-240 -234
-240 237
234 -237 240
-241 -239
-241 -240
239 240 241
-242 -234
-242 -237
234 237 242
-243 -238
-243 -242
238 242 243
-244 -38
-244 39
38 -39 244
-245 38
-245 -39
-38 39 245
-246 -244
-246 -245
244 245 246
-247 38
-247 39
-38 -39 247
-248 243
-248 -246
-243 246 248
-249 -243
-249 246
243 -246 249
-250 -248
-250 -249
248 249 250
-251 -243
-251 -246
243 246 251
-252 -247
-252 -251
247 251 252
-253 -39
-253 40
39 -40 253
-254 39
-254 -40
-39 40 254
-255 -253
-255 -254
253 254 255
-256 39
-256 40
-39 -40 256
-257 252
-257 -255
-252 255 257
-258 -252
-258 255
252 -255 258
-259 -257
-259 -258
257 258 259
-260 -252
-260 -255
252 255 260
-261 -256
-261 -260
256 260 261
-262 -40
-262 41
40 -41 262
-263 40
-263 -41
-40 41 263
-264 -262
-264 -263
262 263 264
-265 40
-265 41
-40 -41 265
-266 261
-266 -264
-261 264 266
-267 -261
-267 264
261 -264 267
-268 -266
-268 -267
266 267 268
-269 -261
-269 -264
261 264 269
-270 -265
-270 -269
265 269 270
-271 -41
-271 42
41 -42 271
-272 41
-272 -42
-41 42 272
-273 -271
-273 -272
271 272 273
-274 41
-274 42
-41 -42 274
-275 270
-275 -273
-270 273 275
-276 -270
-276 273
270 -273 276
-277 -275
-277 -276
275 276 277
-278 -270
-278 -273
270 273 278
-279 -274
-279 -278
274 278 279
-280 -42
-280 43
42 -43 280
-281 42
-281 -43
-42 43 281
-282 -280
-282 -281
280 281 282
-283 42
-283 43
-42 -43 283
-284 279
-284 -282
-279 282 284
-285 -279
-285 282
279 -282 285
-286 -284
-286 -285
284 285 286
-287 -279
-287 -282
279 282 287
-288 -283
-288 -287
283 287 288
-289 -43
-289 44
43 -44 289
-290 43
-290 -44
-43 44 290
-291 -289
-291 -290
289 290 291
-292 43
-292 44
-43 -44 292
-293 288
-293 -291
-288 291 293
-294 -288
-294 291
288 -291 294
-295 -293
-295 -294
293 294 295
-296 -288
-296 -291
288 291 296
-297 -292
-297 -296
292 296 297
-298 -44
-298 45
44 -45 298
-299 44
-299 -45
-44 45 299
-300 -298
-300 -299
298 299 300
-301 44
-301 45
-44 -45 301
-302 297
-302 -300
-297 300 302
-303 -297
-303 300
297 -300 303
-304 -302
-304 -303
302 303 304
-305 -297
-305 -300
297 300 305
-306 -301
-306 -305
301 305 306
-307 -45
-307 46
45 -46 307
-308 45
-308 -46
-45 46 308
-309 -307
-309 -308
307 308 309
-310 45
-310 46
-45 -46 310
-311 306
-311 -309
-306 309 311
-312 -306
-312 309
306 -309 312
-313 -311
-313 -312
311 312 313
-314 -306
-314 -309
306 309 314
-315 -310
-315 -314
310 314 315
-316 19
-316 -79
-19 79 316
-317 -19
-317 21
19 -21 317
-318 -316
-318 -317
316 317 318
-319 19
-319 -88
-19 88 319
-320 -19
-320 22
19 -22 320
-321 -319
-321 -320
319 320 321
-322 19
-322 -97
-19 97 322
-323 -19
-323 23
19 -23 323
-324 -322
-324 -323
322 323 324
-325 19
-325 -106
-19 106 325
-326 -19
-326 24
19 -24 326
-327 -325
-327 -326
325 326 327
-328 19
-328 -115
-19 115 328
-329 -19
-329 25
19 -25 329
-330 -328
-330 -329
328 329 330
-331 19
-331 -124
-19 124 331
-332 -19
-332 26
19 -26 332
-333 -331
-333 -332
331 332 333
-334 19
-334 -133
-19 133 334
-335 -19
-335 27
19 -27 335
-336 -334
-336 -335
334 335 336
-337 19
-337 -142
-19 142 337
-338 -19
-338 28
19 -28 338
-339 -337
-339 -338
337 338 339
-340 19
-340 -151
-19 151 340
-341 -19
-341 29
19 -29 341
-342 -340
-342 -341
340 341 342
-343 19
-343 -160
-19 160 343
-344 -19
-344 30
19 -30 344
-345 -343
-345 -344
343 344 345
-346 19
-346 -169
-19 169 346
-347 -19
-347 31
19 -31 347
-348 -346
-348 -347
346 347 348
-349 19
-349 -178
-19 178 349
-350 -19
-350 32
19 -32 350
-351 -349
-351 -350
349 350 351
-352 19
-352 -187
-19 187 352
-353 -19
-353 33
19 -33 353
-354 -352
-354 -353
352 353 354
-355 19
-355 -196
-19 196 355
-356 -19
-356 34
19 -34 356
-357 -355
-357 -356
355 356 357
-358 19
-358 -205
-19 205 358
-359 -19
-359 35
19 -35 359
-360 -358
-360 -359
358 359 360
-361 19
-361 -214
-19 214 361
-362 -19
-362 36
19 -36 362
-363 -361
-363 -362
361 362 363
-364 19
-364 -223
-19 223 364
-365 -19
-365 37
19 -37 365
-366 -364
-366 -365
364 365 366
-367 19
-367 -232
-19 232 367
-368 -19
-368 38
19 -38 368
-369 -367
-369 -368
367 368 369
-370 19
-370 -241
-19 241 370
-371 -19
-371 39
19 -39 371
-372 -370
-372 -371
370 371 372
-373 19
-373 -250
-19 250 373
-374 -19
-374 40
19 -40 374
-375 -373
-375 -374
373 374 375
-376 19
-376 -259
-19 259 376
-377 -19
-377 41
19 -41 377
-378 -376
-378 -377
376 377 378
-379 19
-379 -268
-19 268 379
-380 -19
-380 42
19 -42 380
-381 -379
-381 -380
379 380 381
-382 19
-382 -277
-19 277 382
-383 -19
-383 43
19 -43 383
-384 -382
-384 -383
382 383 384
-385 19
-385 -286
-19 286 385
-386 -19
-386 44
19 -44 386
-387 -385
-387 -386
385 386 387
-388 19
-388 -295
-19 295 388
-389 -19
-389 45
19 -45 389
-390 -388
-390 -389
388 389 390
-391 19
-391 -304
-19 304 391
-392 -19
-392 46
19 -46 392
-393 -391
-393 -392
391 392 393
-394 19
-394 -313
-19 313 394
-395 1
-395 72
-1 -72 395
-396 -72
-396 73
72 -73 396
-397 -395
-397 -396
395 396 397
-398 2
-398 72
-2 -72 398
-399 -72
-399 -318
72 318 399
-400 -398
-400 -399
398 399 400
-401 3
-401 72
-3 -72 401
-402 -72
-402 -321
72 321 402
-403 -401
-403 -402
401 402 403
-404 4
-404 72
-4 -72 404
-405 -72
-405 -324
72 324 405
-406 -404
-406 -405
404 405 406
-407 5
-407 72
-5 -72 407
-408 -72
-408 -327
72 327 408
-409 -407
-409 -408
407 408 409
-410 6
-410 72
-6 -72 410
-411 -72
-411 -330
72 330 411
-412 -410
-412 -411
410 411 412
-413 7
-413 72
-7 -72 413
-414 -72
-414 -333
72 333 414
-415 -413
-415 -414
413 414 415
-416 8
-416 72
-8 -72 416
-417 -72
-417 -336
72 336 417
-418 -416
-418 -417
416 417 418
-419 9
-419 72
-9 -72 419
-420 -72
-420 -339
72 339 420
-421 -419
-421 -420
419 420 421
-422 10
-422 72
-10 -72 422
-423 -72
-423 -342
72 342 423
-424 -422
-424 -423
422 423 424
-425 11
-425 72
-11 -72 425
-426 -72
-426 -345
72 345 426
-427 -425
-427 -426
425 426 427
-428 12
-428 72
-12 -72 428
-429 -72
-429 -348
72 348 429
-430 -428
-430 -429
428 429 430
-431 13
-431 72
-13 -72 431
-432 -72
-432 -351
72 351 432
-433 -431
-433 -432
431 432 433
-434 14
-434 72
-14 -72 434
-435 -72
-435 -354
72 354 435
-436 -434
-436 -435
434 435 436
-437 15
-437 72
-15 -72 437
-438 -72
-438 -357
72 357 438
-439 -437
-439 -438
437 438 439
-440 16
-440 72
-16 -72 440
-441 -72
-441 -360
72 360 441
-442 -440
-442 -441
440 441 442
-443 17
-443 72
-17 -72 443
-444 -72
-444 -363
72 363 444
-445 -443
-445 -444
443 444 445
-446 18
-446 72
-18 -72 446
-447 -72
-447 -366
72 366 447
-448 -446
-448 -447
446 447 448
-449 -72
-449 -369
72 369 449
-450 -72
-450 -372
72 372 450
-451 -72
-451 -375
72 375 451
-452 -72
-452 -378
72 378 452
-453 -72
-453 -381
72 381 453
-454 -72
-454 -384
72 384 454
-455 -72
-455 -387
72 387 455
-456 -72
-456 -390
72 390 456
-457 -72
-457 -393
72 393 457
-458 -72
-458 394
72 -394 458
-459 -46
-459 315
46 -315 459
-460 19
-460 -459
-19 459 460
460
